db/inputs/1870510682726835012444510760354712941.smt2
(set-logic QF_FP)
(declare-const x0 (_ FloatingPoint 8 24))
(declare-const x1 (_ FloatingPoint 8 24))
(declare-const x2 (_ FloatingPoint 8 24))
(declare-const x3 (_ FloatingPoint 8 24))
(declare-const x4 (_ FloatingPoint 8 24))
(declare-const x5 (_ FloatingPoint 8 24))
(declare-const x6 (_ FloatingPoint 8 24))
(declare-const x7 (_ FloatingPoint 8 24))
(declare-const x8 (_ FloatingPoint 8 24))
(declare-const x9 (_ FloatingPoint 8 24))
(declare-const x10 (_ FloatingPoint 8 24))
(declare-const x11 (_ FloatingPoint 8 24))
(declare-const x12 (_ FloatingPoint 8 24))
(declare-const x13 (_ FloatingPoint 8 24))
(declare-const x14 (_ FloatingPoint 8 24))
(declare-const x15 (_ FloatingPoint 8 24))
(declare-const x16 (_ FloatingPoint 8 24))
(assert (fp.geq (fp.add RNE x3 x16) (fp.neg x14)))
(assert (fp.eq (fp.add RNE x15 x13) (fp.neg x5)))
(assert (fp.gt (fp.mul RNE x15 x11) (fp.div RNE x15 x13)))
(assert (fp.eq (fp.sub RNE x11 x6) (fp.div RNE x14 x11)))
(assert (fp.geq (fp.sub RNE x15 x10) (fp.neg x13)))
(assert (fp.leq (fp.sub RNE x9 x3) (fp.add RNE x8 x14)))
(assert (fp.lt (fp.neg x4) (fp.mul RNE x16 x16)))
(assert (fp.leq (fp.mul RNE x6 x12) (fp.mul RNE x0 x3)))
(assert (fp.gt (fp.neg x2) (fp.neg x2)))
(assert (fp.gt (fp.neg x1) (fp.mul RNE x12 x4)))
(assert (fp.gt (fp.add RNE x8 x12) (fp.add RNE x14 x3)))
(assert (fp.gt (fp.div RNE x7 x5) (fp.mul RNE x11 x0)))
(assert (fp.lt (fp.neg x6) (fp.neg x6)))
(assert (fp.eq (fp.add RNE x9 x15) (fp.sub RNE x2 x8)))
(assert (fp.gt (fp.div RNE x1 x12) (fp.sub RNE x10 x14)))
(assert (fp.eq (fp.add RNE x14 x16) (fp.mul RNE x12 x6)))
(assert (fp.gt (fp.add RNE x2 x5) (fp.neg x5)))
(check-sat)
