db/data/1870510682726835012444510760354712941.z3.out
unsat
-------------------
6.660882280
